(declare-const X String)
; /^\x2f[A-Za-z0-9+~=]{16,17}\x2f[A-Za-z0-9+~=]{35,40}\x2f[A-Za-z0-9+~=]{8}\x2f[A-Za-z0-9+~=]*?\x2f[A-Za-z0-9+~=]{12,30}$/I
(assert (str.in.re X (re.++ (str.to.re "//") ((_ re.loop 16 17) (re.union (re.range "A" "Z") (re.range "a" "z") (re.range "0" "9") (str.to.re "+") (str.to.re "~") (str.to.re "="))) (str.to.re "/") ((_ re.loop 35 40) (re.union (re.range "A" "Z") (re.range "a" "z") (re.range "0" "9") (str.to.re "+") (str.to.re "~") (str.to.re "="))) (str.to.re "/") ((_ re.loop 8 8) (re.union (re.range "A" "Z") (re.range "a" "z") (re.range "0" "9") (str.to.re "+") (str.to.re "~") (str.to.re "="))) (str.to.re "/") (re.* (re.union (re.range "A" "Z") (re.range "a" "z") (re.range "0" "9") (str.to.re "+") (str.to.re "~") (str.to.re "="))) (str.to.re "/") ((_ re.loop 12 30) (re.union (re.range "A" "Z") (re.range "a" "z") (re.range "0" "9") (str.to.re "+") (str.to.re "~") (str.to.re "="))) (str.to.re "/I\x0a"))))
; /filename=[^\n]*\x2erdp/i
(assert (str.in.re X (re.++ (str.to.re "/filename=") (re.* (re.comp (str.to.re "\x0a"))) (str.to.re ".rdp/i\x0a"))))
; ^([a-zA-z]:((\\([-*\.*\w+\s+\d+]+)|(\w+)\\)+)(\w+.zip)|(\w+.ZIP))$
(assert (not (str.in.re X (re.++ (re.union (re.++ (re.union (re.range "a" "z") (re.range "A" "z")) (str.to.re ":") (re.+ (re.union (re.++ (str.to.re "\x5c") (re.+ (re.union (str.to.re "-") (str.to.re "*") (str.to.re ".") (str.to.re "+") (re.range "0" "9") (re.range "0" "9") (re.range "A" "Z") (re.range "a" "z") (str.to.re "_") (str.to.re " ") (str.to.re "\x09") (str.to.re "\x0a") (str.to.re "\x0c") (str.to.re "\x0d")))) (re.++ (re.+ (re.union (re.range "0" "9") (re.range "A" "Z") (re.range "a" "z") (str.to.re "_"))) (str.to.re "\x5c")))) (re.+ (re.union (re.range "0" "9") (re.range "A" "Z") (re.range "a" "z") (str.to.re "_"))) re.allchar (str.to.re "zip")) (re.++ (re.+ (re.union (re.range "0" "9") (re.range "A" "Z") (re.range "a" "z") (str.to.re "_"))) re.allchar (str.to.re "ZIP"))) (str.to.re "\x0a")))))
(check-sat)
